proyfinal/src/viki/013/experimentInOfficeAgust.take6.output/814acbff-6472-4782-948b-5cccd84b0fa8.als.out
Reading from standard input... Use '--help' for help.
============================[ Problem Statistics ]=============================
|                                                                             |
|  Number of variables:         87638                                         |
|  Number of clauses:          161767                                         |
|  Parse time:                   0.04 s                                       |
|                                                                             |
============================[ Search Statistics ]==============================
| Conflicts |          ORIGINAL         |          LEARNT          | Progress |
|           |    Vars  Clauses Literals |    Limit  Clauses Lit/Cl |          |
===============================================================================
|       100 |   63919   110665   276620 |    40577      100     20 | 27.065 % |
|       250 |   63919   110665   276620 |    44634      250     24 | 27.065 % |
|       475 |   63919   110665   276620 |    49098      475     41 | 27.065 % |
|       812 |   63919   110665   276620 |    54008      812     47 | 27.065 % |
|      1318 |   63919   110665   276620 |    59409     1318     65 | 27.065 % |
|      2077 |   63919   110665   276620 |    65349     2077     64 | 27.065 % |
|      3216 |   63918   110621   276530 |    71884     3212     73 | 27.066 % |
|      4924 |   63910   110589   276442 |    79073     4750     76 | 27.075 % |
|      7486 |   63888   110497   276231 |    86980     7309     83 | 27.100 % |
|     11330 |   63869   110421   276055 |    95678    11152     90 | 27.122 % |
===============================================================================
restarts              : 63
conflicts             : 16494          (6537 /sec)
decisions             : 63032          (0.00 % random) (24980 /sec)
propagations          : 24514177       (9715280 /sec)
conflict literals     : 1468692        (46.87 % deleted)
Memory used           : 40.32 MB
CPU time              : 2.52326 s

INDETERMINATE
